
 102   30
  10   10   10   10   10   10   10   10   10   10   10   10   10   10   10   10   10   10   10   10   10   10   10   10   10   10   10   10   10   10

   0   0   0   0   0   0   0   0   0   0   0   0   0   0   0   0   0   0   0   0   0   0   0   0   0   0   0   0   0   0   0  28 2 3 4 5 6 7 8 9 10 11 12 13 14 15 16 19 20 21 22 23 25 26 28 29 30 31 33 36 
   4   0   4   0   0   0   0   0   0   1   0   0   0   0   0   0   0   0   0   0   0   0   0   2   0   1   0   0   0   0   0  11 101 98 65 57 51 46 45 41 38 24 17 
   4   0   0   0   0   0   0   0   1   0   0   2   0   0   2   0   0   0   0   0   0   0   0   0   0   0   0   0   0   0   0  21 100 97 96 95 66 64 62 59 58 57 56 53 52 49 47 44 43 41 40 39 34 
   6   0   5   0   0   0   1   0   0   0   0   0   0   0   0   0   0   0   0   1   0   0   0   0   0   0   0   0   0   1   0  16 101 98 69 66 65 63 58 56 50 49 48 45 41 38 35 24 
  10   0   0   0   0   0   0   0   0   7   0   0   1   0   6   0   0   0   0   0   0   0   0   0   0   8   0   0   0   0   0   9 101 69 64 58 56 52 44 43 18 
   3   0   0   0   0   0   0   0   0   0   0   3   5   0   0   0   0   0   0   0   1   1   0   0   0   0   0   0   0   0   1  10 101 100 99 68 67 59 58 53 50 18 
   4   3   0   0   0   0   0   0   0   8   0   6   0   3   2   0   0   0   0   0   0   0   0   0   0   0   0   0   0   0   0  19 101 98 97 93 92 91 67 65 63 62 60 56 48 47 45 40 39 38 37 
   2   0   0   1   0   0   0   0   0   4   0   0   0   4   0   0   0   0   0   0   0   0   0   5   0   0   0   0   0   0   0  14 100 98 97 90 87 67 65 63 58 53 50 49 46 24 
   1   0   0   0   1   0   0   0   7   0   0   0   0   0   0   0   0   0   0   0   0   0   0   8   0   0   3   0   0   0   8  16 100 97 94 93 88 86 68 67 64 61 60 57 53 48 43 32 
   2   8   0   0   0   0   0   0   0   0   0   0   7   0   0   0   0   0   1   0   0   5   0   0   0   0   0   0   0   0   0  14 101 97 92 68 67 63 62 60 54 53 52 40 39 27 
   1   0   0   0   0   0   0   0   0   0   1   0   0   0   0   0   0   0   0   0   0   0   1   0   0   0   0   0   0   0   0  14 98 97 96 93 90 87 67 66 65 64 63 53 52 24 
   4   0   0   4   0   0   0   0   0   0   0   0   6   0   0   1   0   0   8   4   0   0   0   9   3   0   0   0   0   0   0  16 97 92 91 89 87 67 61 59 55 54 52 50 49 47 43 42 
   2   0   0   8   0   0   9   0   0   0   0   0   0   0   0   0   0   3   0   0   0   0   0   0   0   0   6   0   0   0   6  12 101 97 96 90 69 66 65 64 58 56 49 24 
   6   0   0   0   4   0   0   0   5   0   0   0   0   0   0   0   0   0   0   0   0   0   0   0   0   0   0   0   1   0   6  11 98 97 96 87 69 68 65 63 58 49 24 
   7   6   0   0   0   2   0   0   0   0   0   0   0   0   0   0   0   0   8   0   0   0   0   0   0   0   0   0   8   0   0  14 95 92 91 68 67 64 55 54 49 48 47 46 43 39 
   5   0   0   0   5   0   7   0   0   0   0   0   0   0   5   0   0   0   0   0   0   0   0   0   5   0   0   0   0   3   0  17 100 99 97 96 93 91 90 83 67 66 64 60 58 57 55 39 34 
   5  10   0   0   0   0   8   0   0   0   0   0   0   0   6   0   5   0   0   0   0   0   0   0   0   0   0   1   0   0   0  23 100 97 96 95 93 92 91 86 84 83 68 67 66 64 63 62 61 60 58 56 55 54 48 
   7   0   0   9   0   0   0   0   0   0   0   0   0   0   0   0   0   0   0   0   0   0   0   0   0   0   0   0   0   0   0  16 97 96 95 92 91 66 63 62 57 55 54 49 48 47 45 39 
   7   0   0   7   0   0   0   0   0   0   0   0   0   0   0   0   0   0   0   0   6   0   0   0   0   0   0   6   0   8   6  16 100 99 98 95 92 90 65 63 62 56 55 54 49 48 47 39 
   4   0   0   0   0   7   7   0   0   0   0   0   0   0   0   0   0   0   0   0   0   0   0   0   0   0   0   0   0   0   0  12 101 95 94 91 90 81 69 59 52 51 49 34 
   5   0   0   0   0   0   0   0   0   0   0   0   0   0   0   0   0   0   0   0   0   0   0   0   0   0   0   0   0   6   0  17 98 96 95 93 92 91 90 88 87 84 73 66 61 60 56 54 40 
   7   0   0   0   0   0   0   1   6   0   0   0   0   0   0   0   0   0   0   0   0   0   0   0   0   3   0   0   0   0   0  25 98 97 95 93 92 89 87 86 85 84 83 82 81 80 79 78 76 75 68 67 65 62 61 60 58 
   6   0   0   0   7   0   0   0   7   8   0   0   0   0   0   0   0   0   0   0   0   0   4   0   0   0   0   5   9   0   0  19 100 98 97 96 95 93 89 87 86 85 81 75 65 64 62 60 56 54 51 
   7   0   0   0   6   0   0   4   0   0   8   0   0   0   0   0   0   0   0  10   0   0   0   0   0   9   0   0   8   0   0  13 99 95 92 91 89 85 75 62 60 55 54 47 39 
   4   0   0   5   0   0   0   7   0   4   0   8   0   0   0   0   0   6   0   0  10   0   0   0   0   0   0   0   5   0   0  11 95 91 90 88 83 82 69 64 61 60 34 
   1   0   0   0   0   0   0   0   0   0   0   0   0   0   0   4   0   0   0   3   0   0   0   0   0   0   0   0   0   0   0  19 98 96 94 93 90 87 84 83 77 76 75 73 71 69 66 65 64 60 56 
   1   6   0   0   0   0   0   0   0   0   0   0   0   0   0   0   0   0   0   0   0   5   8   4   0   0   0   0   4   0   0  18 100 98 94 93 91 88 87 83 76 75 74 73 66 65 64 61 56 55 
   6   0   0   0   0   0   0   0   0   6   8   6   9   0   8  10   0   0   0   0   0   6   0   0   0   0   0   0   0   7   0  19 100 97 95 93 92 91 87 83 82 81 79 78 77 76 71 64 62 60 50 
   3   0   0   0   0   0   0   0   7   0   0   0   0   0   0   0   2   0   0   7   0   0   0   0   3   0   0   6   0   0   0  16 101 96 92 91 90 89 88 87 84 81 79 75 73 64 61 49 
   9   0   0   0   0   0   0   0   0   0   0   0   0   0   0   0   0   0   0   0   0   0   0   3   0   0   0   0   0   0   0  14 96 95 94 91 89 88 85 84 79 78 66 61 57 45 
   8   0   0   0   0   0   0   8   0   0   0   0   0   0   0   0   0   0   0   0   0   0   7   0   0   0   8   0   6   0   0  15 99 97 90 85 84 83 82 80 76 74 73 63 62 61 55 
  10   0   0   0   7   0   0   0   0   0   0   9   0  10   0   0   0   0   0   0   0   0   0   0   7   0   0   0   0   0   0  13 98 96 95 92 91 87 84 83 75 74 62 56 54 
   5   0   3   0   0   0   0   0   0   0   0   0   0   0   0  10   0   0   0   0   0   0   0   0   0   0   0   0   0   2   0  11 97 95 85 82 80 78 75 60 58 55 54 
  10   7   0   0   0   0   0   0   0   0   0   0   0   0   0   0   0   0   0   0   0   0   0   0  10   0   0   0   0   0   0  15 98 92 89 87 86 85 84 80 78 74 73 72 70 63 54 
   9   0   0   0   0   0   0   0   0   0   0   0   0   0   0   4   0   0   0   0   0   0   6  10   0   0   0   4   0   0   0  13 97 90 86 83 81 80 78 75 74 73 72 62 54 
   3   0   0   0   0   0   8   0   0   0   0   0   0   0   0   0   7   0   0   0   0   0   0   0   5   7   0   0   0   0   0  13 97 86 82 81 80 78 76 75 73 72 71 67 62 
  10   0   0   0   0   0   0   0   0   0   0   0   7   0   0   0   0   0   0   0   0   7   0   0   0   0   0   0   0   5   0  11 99 96 87 83 82 81 75 74 73 72 54 
   7   0  10   0   7   2   0   0   0   0   0   0   7   0   0   0   0   0   0   0   0   0   6   0   0   0   0   0   0   0   0  10 100 87 82 80 75 74 73 72 64 54 
   9   0   0   0   0   0   0   0   0   0   0   0   0   0   0   8   0   0   5   0   3   0   0   0   0   0   0   0   0   0   0  13 94 84 82 81 80 79 78 76 73 72 71 70 61 
   7   0   0   0   0   0   0   0   0   0   0   0   0   0   0   0   0   0   0   0   0   0   0   0   0   0   0   0   0   5   0  10 94 89 86 85 83 79 78 75 74 55 
   5   0   0   0   0   0   0   0   0   0   0   0   0   0   0   0   8   0   0   4   0   0   7   0   0   0   0   0   0   0   0   9 99 91 90 82 80 78 67 60 55 
   2   0   0   0   0   0   0   8   0   0   0   0   8   0   0   0   0   0   9   0   0   0   0   0   0   0   0   0   0   0   0   8 100 95 84 80 78 72 60 57 
   1   0   0   0   0   0   0   0   0   0   7   0   0   0   0   0   0   0   0   0   8   6   0   0   0   0   0   0   0   0   0  10 99 85 77 76 74 73 71 70 65 63 
   6   0   0   0   0   0   0   0   0   6   0   0   0   0   0   0   0   0   0   0   6   0   5   0   0   5   0   0   9   0   0   6 85 84 75 74 73 55 
   3   8   0   0   0   0   7   0   0   0   0   0   5   0   0   0   0   0   0   0   0   0   0   0   3   0   0   0   8   0   0   9 90 81 80 77 75 74 72 71 70 
   1   0   0   0   0   0   0   0   0   0   0   0   0   0   0   0   0   0   0   0   7   0   0   0   0   0   0   0   0   0   0   8 89 86 79 78 77 73 72 66 
   1   0   0   0   0   0   0   0   0   0   0   0   0   0   0   0   0   0   0   0   0   0   0   0   0   0   0   0   0   0   0   7 88 86 83 78 76 74 71 
   2   0   0   0   0   0   0   0   0   0   7   0   0   0   0   0   0   0   0   0   0   0   0   0   0   0   0   0   8   0   0   7 89 87 85 79 72 71 70 
   8   0   0   0   0   0   0   0   0   0   0   0   0   0   0   0   0   6   0   0   0   0   0   0   0   0   0   0   0   0   0   6 93 83 82 72 71 60 
   6   0   0   0   0   0   0   0   0   0   0   0   0   0   0   8   8  10   0   0   0   0   0   0   8   0   0   0   9   0   0   6 96 94 86 75 73 70 
   7   0   0   0   7   0   0   0   0   0   0   0   0   0   0   0   0   0   0   0   0   0   6   0   0   0   0   0   0   0   0   6 88 84 73 72 71 70 
   5   0   0   0   0  10   0   0   0   0   0   0   0   0   0   0   0   0   0   0   0   0   0   0   0   0   0   0   0  10   0   5 86 78 73 71 70 
   3   0   0   0   0   0   7   0   0   0   0   6   0   0   0   0   0   0   0   0   0   6   8   0   0   0   0   0   0   7   0   5 81 77 76 73 70 
   3   0   0   0   0   0   0   0   0   0   0   0   0   0   0   4   0   0   0   0   0   0   0   0   0   0   0   0   0   6   0   4 79 77 76 71 
   1   0   6   0   0   0   0   0   0   0   0   0   0   0   0   0   3   4   0   0   0   0   0   0   0   0   6   0   5   0   0   4 81 72 71 70 
   2   0   0   0   0   5   0   0   0   0   8   0   0   0   0   0   0   0   0   0   0  10   7   0   0   0   0   0   0   0   0   4 82 80 79 78 
   8   3   0   0   0   0   0   0   0   0   0   0   0   0   0   0   0   5   6   0   0   0   0   0   0   0   0   0   4   0   0   4 76 73 71 70 
   1   0   6   0   0   0   0   0   0   8   0   0   0   0   0   6   0   0   0   0   0   0   0   0   0   0   0   0   0  10   0   3 88 73 71 
   1   8  10   0   0   0   0   0   0   0   0   0   0   0   0   0   0   0   0  10   0   0   0   0   4   0   0   5   0   0   0   2 78 72 
   3   0   0   0   0   0   0   0   0   4   0   0   0   0   0   0   0   0   0   0   0   0   0   7   0   0   0   0   7   0   0   1 74 
  10   0   0   0   0   0   0   0   0   0   0   0   0   0   0   0   0   0   0   0   0   9   0   0   0   0  10   0   0   8   0   1 77 
   1   0   0   0   0   0   0   0   0   0   0   4   5  10   0   6   0   0   0   0   0   0   0   0   0   0   0   0   6   0   0   1 70 
   7   0   0   0   0   0   0   0   0   0   0   0   0   0   0   0   4   0   0   0   3   0   0   0   0   0   4  10   5   0   8   1 75 
  10   0   0   0  10   6   0   7   0   0   0   0   9   0   0   0   0   0   0   0   0   0   0   0   0   0   0   0   0   0   0   1 70 
  10   0   0   5   7   0   0   0   0   0   0   0   0   0   0   0   0   0   0   0   0   0   0   0   0   0   4   0   0   0   0   1 72 
   3   0   0   0   0   0   0   9   7   0   0   0   0   3   0   0   0   0   0   0   0   0   0   0   0   0   0   0   0  10   0   1 70 
  10   0   0   0   0   0   0   0   0   0   0   0   0   0   0   0   0   0   0   5   0   9   0   0   0   0   0   0   0   0   0   1 74 
  10   0   0   0   0   5   0   0   0   7   0   0   0   0   5   0   7   0   0   0   0   0   0   4   0   0   8   0   0   0   0   1 90 
   2   0   0   0   0   0   0   2   0   6   0   0   5   0   0   6   0   0   0   0   0   0   0   0   0   6   0   0   0   0   0   1 85 
   8   0   0   0   0   0   0   4   0   0   0   0   0   0   0   8   0   0   0   0   4   0   5   0   0   7   0   0   0   0   0   1 102
   3   0   5   0   0   0   0   0   0   0   7   0   0   0   7   0   0   0   0   0   0   0   0   0   0   0   0   0   0   0   0   1 102
   8   0  10   0   0   0   0   0   0   0   0   0   0   0   0   0   0   0   0   0   0   0   0   0   0   0   0   0   0   0   6   1 102
   8   0   0   0   0   0   4   0   0   0   0   0   0   0   0   0   0   0   7   0   0   6   0   0   0   0   0   0   6   0   0   1 102
   1   0   0   0   0   0   3   0   0   0   0   0   0   7   8   0   0   0   0   7   0   0   0   0   0   0   0   0   5   0   0   1 102
   1   0   0   0   0   0   0   7   0   0   0   0   2   0   0   0   0   0   0   9   0   5   0   0   9   0   0   0   0   0   0   1 102
  10   0   0   0   6   0   0   0   7   0   0   0   0   0   0   0   0   0   0   0   0   0   0   4   0   0   0   0   0   0   0   1 102
   7   0   0   8   0   0   7   0   0   0   0   0   0   0   0   0   0   0   0   0   0   0   0   7   0   0   0   0   0   0   0   1 102
   2   0   0   8   0   7   0   0   0   0   0   8   0   0   0   0   0   0   0   0   0   0   3   0   0   0   0   8   0   3   6   1 102
  10   7   3   6   0   0   0   0   0   0   0   0   0   0   0   0   0   0   0   0   0   0   0   0   0   0   0   0   0   0   0   1 102
   9   0   0   0   0   0   0   0   0   0   0   0   0   0   0   0   0   0   4   0   0   0   7   0   0   0   0   0   0   0   0   1 102
  10   5   6   0   0   0   0   0   0   9   0   0   0   0   0   0   0   0   8   5   0   0   0   0   4   8   0   0   0   0   8   1 102
  10   0   0   0   0   0   0   0   0   0   0   0   0   0   0   0   0   0   0   0   0   0   0   0   0   0   0   7   0   0   0   1 102
   1   0   0   3   0   0   0   0   0   0   0   0   0   0   0   0   0   0   0   0  10   2   0   0   0   0   0   0   3   0   0   1 102
   9   0   0   0   0   0   0   0   0   0   8   6   0   0   0   4   0   0   0   0   0   0   0   0   0   0   0   0   0   0   0   1 102
   6   0   0   0   0   9   0   0   0   0   0   0   0   5   6   3   0   0   0   0   0   0   0   0   0   0   3   0   4   7   0   1 102
   8   0   0   0   4   0   3   0   0   4   0   0   0   0   0   0   0   0   0   0   0   0   0   0   0   8   0   0   0   0   6   1 102
   1   0   0   0   0   0   0   0   5   0   0   0   0   9  10   0   0   0   0   0   0   0   0   0   0   0   0   0   0   0   0   1 102
   5   0   0   0   0   0   0   9   0   7   0   4   0   4   0   0   0   0   0   0   0   0   0   0   0   0   0   0   0   0   0   1 102
   2   0   0   0   7   0   0   0   0   0   0   0   7   6   0   0   0   7   0   0   0   0   0   0   0   0   0  10   7   0   0   1 102
   8   4   0   0   0   3   0   0   8   0   0   0   0   0   0   0   0   0   0   7   0   0   0   0   0   0   0   0   0   0   0   1 102
   1   6   0   0   0   0   5   0   0   0   5   0   0   0   0   0   0   0   0   0   0   0   0   0   0   0   0   0   0   0   0   1 102
   5   0   0   9   0   0   0   0   0   0   6   0   0   5   0   0   0   0   0   0   0   8   7   0  10   0   9   2   0   0   5   1 102
   8   0   0   0   0  10   0   0   0   0   0   0   0   0   0   0   0   0   4   0   0   0   0   0   0   0   0   0   0   0   0   1 102
  10   0   5   6   0   0   0   0   0   0   0   0   0   0   0   0   0   7   0   0   0   0   0   0   0   0   0   5   0   0   0   1 102
   4   0   0   5   0   0   7   0   0   0   0   0   0   0   0   8   0   0   0   0   0   0   0   0   0   0   0   9   0   0   0   1 102
   4   0   0   0   0   0   0   0   0   0   0   0   0   0   0   5   0   0   0   0   0   0   9   0   7   4   0   0   0   0   0   1 102
   9   0   5   0   0   0   0   0   0   7   0   0   7   0   7   0   0   0   0   0   8   0   0   0   0   0   5   0   0   0   0   1 102
  10   3   0   0   0   0   0   0   0   6   0   0   0   0   0   0   0   0   0   0   0   5   0   0   0   0   0   0   0   5   0   1 102
   4   0   0   0   0   0   0   0   0   0   0   0   0   0   0   7   0   0   0   0   0   0   0   0   0   0   0   0   0   0   0   1 102
   9   0   0   0   0   0   0   0   0   0   0   0   0   0   0   0  10   6   0   0   0   0   0   9   0   0   0   0   5   5   0   1 102
   8   0   0   0   0   0   7   0   0   0   1  10   0   0   0   0   0   0   0   0   0   0   0   0   0   0   0   0   6   0   0   1 102
   0   0   0   0   0   0   0   0   0   0   0   0   0   0   0   0   0   0   0   0   0   0   0   0   0   0   0   0   0   0   0   0 
